
Gurobi 11.0.3 (linux64) logging started Mon 18 Nov 2024 10:56:55 PM CST

Set parameter LogFile to value "/home/dlcole3/graph_abstraction/hierarchical_graphs/git_storage/CS1/HP_low_reserves/gurobi_logs/serial/logfile_ST19_5.log"

Gurobi 11.0.3 (linux64) logging started Mon 18 Nov 2024 10:58:36 PM CST

Set parameter LogFile to value "/home/dlcole3/graph_abstraction/hierarchical_graphs/git_storage/CS1/HP_low_reserves/gurobi_logs/serial/logfile_ST19_5.log"
Gurobi Optimizer version 11.0.3 build v11.0.3rc0 (linux64 - "Ubuntu 18.04.3 LTS")

CPU model: Intel(R) Xeon(R) CPU E5-2698 v4 @ 2.20GHz, instruction set [SSE2|AVX|AVX2]
Thread count: 40 physical cores, 80 logical processors, using up to 20 threads

Optimize a model with 29168 rows, 50688 columns and 136175 nonzeros
Model fingerprint: 0x9e98d902
Variable types: 46944 continuous, 3744 integer (3744 binary)
Coefficient statistics:
  Matrix range     [6e-01, 2e+04]
  Objective range  [2e+00, 2e+04]
  Bounds range     [5e-02, 2e+05]
  RHS range        [5e-02, 7e+03]
Presolve removed 13946 rows and 38455 columns
Presolve time: 0.36s
Presolved: 15222 rows, 12233 columns, 64300 nonzeros
Variable types: 9265 continuous, 2968 integer (2968 binary)
Found heuristic solution: objective 186189.45251
Found heuristic solution: objective 185100.33155
Found heuristic solution: objective 157274.67773

Root relaxation: objective 5.796899e+04, 7906 iterations, 0.30 seconds (0.20 work units)

    Nodes    |    Current Node    |     Objective Bounds      |     Work
 Expl Unexpl |  Obj  Depth IntInf | Incumbent    BestBd   Gap | It/Node Time

     0     0 57968.9875    0    5 157274.678 57968.9875  63.1%     -    1s
H    0     0                    80129.120555 57968.9875  27.7%     -    1s
H    0     0                    58473.188119 57968.9875  0.86%     -    1s
     0     0 57968.9875    0    5 58473.1881 57968.9875  0.86%     -    1s
     0     0 57968.9875    0    1 58473.1881 57968.9875  0.86%     -    2s
H    0     0                    58473.187592 57968.9875  0.86%     -    2s
     0     0 57974.0846    0    1 58473.1876 57974.0846  0.85%     -    2s
     0     2 57974.0846    0    1 58473.1876 57974.0846  0.85%     -    2s
H   41    12                    58367.623777 58161.1624  0.35%   2.9    2s
H   47    12                    58193.534146 58170.8465  0.04%   2.7    2s

Explored 55 nodes (13676 simplex iterations) in 2.85 seconds (1.62 work units)
Thread count was 20 (of 80 available processors)

Solution count 8: 58193.5 58193.5 58367.6 ... 186189

Optimal solution found (tolerance 3.00e-03)
Best objective 5.819353414798e+04, best bound 5.817084647867e+04, gap 0.0390%

User-callback calls 1668, time in user-callback 0.00 sec
